# ----------------- INTERMOLECULAR POTENTIAL -------------------
# ---------------Developed for LJ test case -------------- -----

mass 1 16.04 # LJ


pair_style lj/cut 14
pair_modify tail yes # ATC 

#-----------------Combinations----------------------------
		
pair_coeff 1 1 0.2941 3.73     # LJ-LJ



